16
0 2 13
1 0 14
1 2 2
1 9 12
2 6 7
2 7 4
2 9 4
4 1 12
4 6 2
4 9 12
4 11 7
4 14 7
5 1 6
5 2 11
5 4 19
6 7 9
6 8 20
6 10 17
7 2 9
7 6 7
7 11 10
7 12 19
8 1 17
9 4 10
9 11 19
10 9 7
10 11 6
11 2 4
11 10 14
11 14 17
12 9 8
13 2 7
13 3 9
13 5 6
13 7 14
13 10 15
14 1 15
14 9 13
15 1 13
15 2 9
15 5 17
15 8 16
